
#(C) 2019 by FIZ Karlsruhe - Leibniz Institute for Information Infrastructure.  All rights reserved.
data_42684-ICSD
_database_code_ICSD 42684
_audit_creation_date 2002-04-01
_audit_update_record 2012-08-01
_chemical_name_systematic 'Cobalt - delta'
_chemical_formula_structural Co
_chemical_formula_sum Co1
_exptl_crystal_density_diffrn 7.18
_publ_section_title
'Nachweis einer neuen Phase bei der funkenerosiven Behandlung von Kobalt'
loop_
_citation_id
_citation_journal_full
_citation_year
_citation_journal_volume
_citation_page_first
_citation_page_last
_citation_journal_id_ASTM
primary 'Zeitschrift fuer Metallkunde' 1970 61 350 354 ZEMTAE
loop_
_publ_author_name
'Krainer, E.'
'Robitsch, J.'
_cell_length_a 8.288
_cell_length_b 8.288
_cell_length_c 10.542
_cell_angle_alpha 90.
_cell_angle_beta 90.
_cell_angle_gamma 120.
_cell_volume 627.12
_cell_formula_units_Z 46
_symmetry_space_group_name_H-M 'P 63 m c'
_symmetry_Int_Tables_number 186
_refine_ls_R_factor_all 0.0746
loop_
_symmetry_equiv_pos_site_id
_symmetry_equiv_pos_as_xyz
1 '-x, -x+y, z+1/2'
2 'x-y, -y, z+1/2'
3 'y, x, z+1/2'
4 'x-y, x, z+1/2'
5 'y, -x+y, z+1/2'
6 '-x, -y, z+1/2'
7 'x, x-y, z'
8 '-x+y, y, z'
9 '-y, -x, z'
10 '-x+y, -x, z'
11 '-y, x-y, z'
12 'x, y, z'
loop_
_atom_type_symbol
_atom_type_oxidation_number
Co0+ 0
loop_
_atom_site_label
_atom_site_type_symbol
_atom_site_symmetry_multiplicity
_atom_site_Wyckoff_symbol
_atom_site_fract_x
_atom_site_fract_y
_atom_site_fract_z
_atom_site_B_iso_or_equiv
_atom_site_occupancy
_atom_site_attached_hydrogens
Co1 Co0+ 2 a 0 0 0.1185 . 1. 0
Co2 Co0+ 2 a 0 0 0.3814 . 1. 0
Co3 Co0+ 2 b 0.3333 0.6667 0.943 . 1. 0
Co4 Co0+ 2 b 0.3333 0.6667 0.6682 . 1. 0
Co5 Co0+ 2 b 0.3333 0.6667 0.3948 . 1. 0
Co6 Co0+ 6 c 0.116 0.884 0.986 . 1. 0
Co7 Co0+ 6 c 0.8154 0.1846 0.019 . 1. 0
Co8 Co0+ 6 c 0.194 0.806 0.251 . 1. 0
Co9 Co0+ 6 c 0.8552 0.1448 0.25 . 1. 0
Co10 Co0+ 6 c 0.4924 0.5076 0.0427 . 1. 0
Co11 Co0+ 6 c 0.526 0.474 0.3056 . 1. 0
#End of TTdata_42684-ICSD