
#(C) 2019 by FIZ Karlsruhe - Leibniz Institute for Information Infrastructure.  All rights reserved.
data_164445-ICSD
_database_code_ICSD 164445
_audit_creation_date 2010-02-01
_chemical_name_systematic 'Cobalt nickel aluminium (0.76/0.66/0.58)'
_chemical_formula_structural 'Co0.76 Ni0.66 Al0.58'
_chemical_formula_sum 'Al0.58 Co0.76 Ni0.66'
_chemical_name_structure_type CsCl
_exptl_crystal_density_diffrn 7.06
_cell_measurement_temperature 450.
_publ_section_title

;
Crystal structures and phase transitions in ferromagnetic shape memory alloys
based on Co - Ni - Al and Co - Ni - Ga
;
loop_
_citation_id
_citation_journal_full
_citation_year
_citation_journal_volume
_citation_page_first
_citation_page_last
_citation_journal_id_ASTM
primary 'Journal of Physics: Condensed Matter' 2005 17 1301 1310 JCOMEL
loop_
_publ_author_name
'Brown, P.J.'
'Ishida, K.'
'Kainuma, R.'
'Kanomata, T.'
'Neumann, K.-U.'
'Oikawa, K.'
'Ouladdiaf, B.'
'Ziebeck, K.R.A.'
_cell_length_a 2.8571(2)
_cell_length_b 2.8571(2)
_cell_length_c 2.8571(2)
_cell_angle_alpha 90.
_cell_angle_beta 90.
_cell_angle_gamma 90.
_cell_volume 23.32
_cell_formula_units_Z 1
_symmetry_space_group_name_H-M 'P m -3 m'
_symmetry_Int_Tables_number 221
loop_
_symmetry_equiv_pos_site_id
_symmetry_equiv_pos_as_xyz
1 'z, y, -x'
2 'y, x, -z'
3 'x, z, -y'
4 'z, x, -y'
5 'y, z, -x'
6 'x, y, -z'
7 'z, -y, x'
8 'y, -x, z'
9 'x, -z, y'
10 'z, -x, y'
11 'y, -z, x'
12 'x, -y, z'
13 '-z, y, x'
14 '-y, x, z'
15 '-x, z, y'
16 '-z, x, y'
17 '-y, z, x'
18 '-x, y, z'
19 '-z, -y, -x'
20 '-y, -x, -z'
21 '-x, -z, -y'
22 '-z, -x, -y'
23 '-y, -z, -x'
24 '-x, -y, -z'
25 '-z, -y, x'
26 '-y, -x, z'
27 '-x, -z, y'
28 '-z, -x, y'
29 '-y, -z, x'
30 '-x, -y, z'
31 '-z, y, -x'
32 '-y, x, -z'
33 '-x, z, -y'
34 '-z, x, -y'
35 '-y, z, -x'
36 '-x, y, -z'
37 'z, -y, -x'
38 'y, -x, -z'
39 'x, -z, -y'
40 'z, -x, -y'
41 'y, -z, -x'
42 'x, -y, -z'
43 'z, y, x'
44 'y, x, z'
45 'x, z, y'
46 'z, x, y'
47 'y, z, x'
48 'x, y, z'
loop_
_atom_type_symbol
_atom_type_oxidation_number
Co0+ 0
Ni0+ 0
Co0+ 0
Ni0+ 0
Al0+ 0
loop_
_atom_site_label
_atom_site_type_symbol
_atom_site_symmetry_multiplicity
_atom_site_Wyckoff_symbol
_atom_site_fract_x
_atom_site_fract_y
_atom_site_fract_z
_atom_site_B_iso_or_equiv
_atom_site_occupancy
_atom_site_attached_hydrogens
Co1 Co0+ 1 a 0 0 0 0.95(4) 0.53 0
Ni1 Ni0+ 1 a 0 0 0 0.95(4) 0.47 0
Co2 Co0+ 1 b 0.5 0.5 0.5 0.95(4) 0.23 0
Ni2 Ni0+ 1 b 0.5 0.5 0.5 0.95(4) 0.19 0
Al1 Al0+ 1 b 0.5 0.5 0.5 0.95(4) 0.58 0
#End of TTdata_164445-ICSD