
#(C) 2019 by FIZ Karlsruhe - Leibniz Institute for Information Infrastructure.  All rights reserved.
data_168457-ICSD
_database_code_ICSD 168457
_audit_creation_date 2011-02-01
_chemical_name_systematic 'Aluminium cobalt (148.2/50.1) - o''
_chemical_formula_structural 'Al148.2 Co50.1'
_chemical_formula_sum 'Al148.2 Co50.1'
_exptl_crystal_density_diffrn 3.98
_cell_measurement_temperature 293.
_publ_section_title 'o'- Al13 Co4 , a new quasicrystal approximant'
loop_
_citation_id
_citation_journal_full
_citation_year
_citation_journal_volume
_citation_page_first
_citation_page_last
_citation_journal_id_ASTM
primary 'Journal of Alloys and Compounds' 2010 500 153 160 JALCEU
loop_
_publ_author_name
'Fleischer, F.'
'Weber, T.'
'Jung, D.-Y.'
'Steurer, W.'
_cell_length_a 28.890(4)
_cell_length_b 8.138(2)
_cell_length_c 12.346(1)
_cell_angle_alpha 90.
_cell_angle_beta 90.
_cell_angle_gamma 90.
_cell_volume 2902.63
_cell_formula_units_Z 1
_symmetry_space_group_name_H-M 'P n m a'
_symmetry_Int_Tables_number 62
_refine_ls_R_factor_all 0.0481
loop_
_symmetry_equiv_pos_site_id
_symmetry_equiv_pos_as_xyz
1 'x+1/2, y, -z+1/2'
2 'x, -y+1/2, z'
3 '-x+1/2, y+1/2, z+1/2'
4 '-x, -y, -z'
5 '-x+1/2, -y, z+1/2'
6 '-x, y+1/2, -z'
7 'x+1/2, -y+1/2, -z+1/2'
8 'x, y, z'
loop_
_atom_type_symbol
_atom_type_oxidation_number
Co0+ 0
Al0+ 0
loop_
_atom_site_label
_atom_site_type_symbol
_atom_site_symmetry_multiplicity
_atom_site_Wyckoff_symbol
_atom_site_fract_x
_atom_site_fract_y
_atom_site_fract_z
_atom_site_B_iso_or_equiv
_atom_site_occupancy
_atom_site_attached_hydrogens
Co1 Co0+ 8 d 0.215902(10) 0.02816(5) 0.43603(2) 0.01260(9) 1. 0
Co2 Co0+ 4 c 0.168326(13) 0.25 0.74196(3) 0.00736(9) 1. 0
Co3 Co0+ 4 c 0.081933(13) 0.25 0.44519(3) 0.00726(9) 1. 0
Co4 Co0+ 4 c 0.425735(12) 0.25 0.93078(3) 0.00721(9) 1. 0
Co5 Co0+ 4 c 0.170825(11) 0.25 0.13845(3) 0.00686(9) 1. 0
Co6 Co0+ 4 c 0.324870(13) 0.25 0.25674(3) 0.00778(10) 1. 0
Co7 Co0+ 8 d 0.034247(10) 0.02849(5) 0.74856(2) 0.01070(9) 1. 0
Co8 Co0+ 4 c 0.424670(12) 0.25 0.57386(3) 0.00625(9) 1. 0
Co9 Co0+ 4 c 0.078902(12) 0.25 0.04830(3) 0.00701(9) 1. 0
Co10 Co0+ 4 c 0.324737(11) 0.25 0.61367(3) 0.00606(9) 1. 0
Co11 Co0+ 4 c 0.37421(2) 0.25 0.09263(6) 0.0117(2) 0.525(2) 0
Al1 Al0+ 8 d 0.21705(2) 0.03293(9) 0.05021(15) 0.00893(13) 1. 0
Al2 Al0+ 8 d 0.03291(2) 0.03236(8) 0.13687(5) 0.00896(12) 1. 0
Al3 Al0+ 8 d 0.37942(2) 0.01890(8) 0.26232(5) 0.01145(13) 1. 0
Al4 Al0+ 4 c 0.38595(3) 0.25 0.75524(6) 0.00970(16) 1. 0
Al5 Al0+ 4 c 0.36395(3) 0.25 0.43198(6) 0.01063(16) 1. 0
Al6 Al0+ 8 d 0.31061(2) 0.03013(9) 0.75272(4) 0.01204(14) 1. 0
Al7 Al0+ 8 d 0.37065(2) 0.01900(8) 0.92459(5) 0.01143(12) 1. 0
Al8 Al0+ 8 d 0.43931(2) 0.02980(9) 0.43415(4) 0.01165(13) 1. 0
Al9 Al0+ 8 d 0.03597(2) 0.03139(8) 0.36100(5) 0.00938(12) 1. 0
Al10 Al0+ 4 c 0.09752(4) 0.25 0.24759(7) 0.0193(2) 1. 0
Al11 Al0+ 8 d 0.30873(2) 0.02443(8) 0.12047(5) 0.01233(13) 1. 0
Al12 Al0+ 8 d 0.44155(2) 0.02886(9) 0.06595(4) 0.01222(13) 1. 0
Al13 Al0+ 8 d 0.21403(2) 0.02962(7) 0.82571(5) 0.00984(12) 1. 0
Al14 Al0+ 4 c 0.15315(4) 0.25 0.93988(7) 0.0180(2) 1. 0
Al15 Al0+ 8 d 0.125075(17) 0.00024(7) 0.09371(4) 0.00856(13) 1. 0
Al16 Al0+ 4 c 0.46194(4) 0.25 0.24729(8) 0.0219(2) 1. 0
Al17 Al0+ 4 c 0.28774(4) 0.25 0.93775(8) 0.0238(2) 1. 0
Al18 Al0+ 4 c 0.24456(3) 0.25 0.65971(9) 0.0194(2) 1. 0
Al19 Al0+ 4 c 0.27318(3) 0.25 0.43977(7) 0.01473(18) 1. 0
Al20 Al0+ 4 c 0.47659(3) 0.25 0.74897(7) 0.01250(17) 1. 0
Al21 Al0+ 4 c 0.00685(3) 0.25 0.53443(9) 0.0193(2) 1. 0
Al22 Al0+ 4 c 0.00132(7) 0.25 0.9842(2) 0.01220(17) 0.575(6) 0
Al23 Al0+ 4 c 0.00767(10) 0.25 0.9525(3) 0.01220(17) 0.425(6) 0
Al24 Al0+ 4 c 0.24830(8) 0.25 0.2043(3) 0.01220(17) 0.476(5) 0
Al25 Al0+ 4 c 0.24165(8) 0.25 0.2377(2) 0.01220(17) 0.524(5) 0
Al26 Al0+ 4 c 0.07651(6) 0.25 0.8440(2) 0.01220(17) 0.582(5) 0
Al27 Al0+ 4 c 0.0797(3) 0.25 0.8080(13) 0.01220(17) 0.101(5) 0
Al28 Al0+ 4 c 0.17247(6) 0.25 0.34477(17) 0.01220(17) 0.514(3) 0
Al29 Al0+ 4 c 0.1720(2) 0.25 0.3970(6) 0.01220(17) 0.135(3) 0
Al30 Al0+ 4 c 0.16254(14) 0.25 0.5359(4) 0.01220(17) 0.451(5) 0
Al31 Al0+ 4 c 0.1489(4) 0.25 0.5601(8) 0.01220(17) 0.147(5) 0
Al32 Al0+ 4 c 0.16822(18) 0.25 0.4904(6) 0.01220(17) 0.172(4) 0
Al33 Al0+ 4 c 0.08148(17) 0.25 0.6955(5) 0.01220(17) 0.184(3) 0
Al34 Al0+ 4 c 0.08821(13) 0.25 0.6496(3) 0.01220(17) 0.466(4) 0
Al35 Al0+ 4 c 0.1045(4) 0.25 0.6251(6) 0.01220(17) 0.190(4) 0
Al36 Al0+ 4 c 0.1234(4) 0.25 0.5955(8) 0.01220(17) 0.109(3) 0
loop_
_atom_site_aniso_label
_atom_site_aniso_type_symbol
_atom_site_aniso_U_11
_atom_site_aniso_U_22
_atom_site_aniso_U_33
_atom_site_aniso_U_12
_atom_site_aniso_U_13
_atom_site_aniso_U_23
Co1 Co0+ 0.00682(14) 0.02280(17) 0.00819(14) 0. 0. 0.
Co2 Co0+ 0.00632(17) 0.00707(17) 0.00868(18) 0. 0. 0.
Co3 Co0+ 0.00622(16) 0.00692(17) 0.00864(17) 0. 0. 0.
Co4 Co0+ 0.00648(16) 0.00628(17) 0.00886(17) 0. 0. 0.
Co5 Co0+ 0.00497(15) 0.00654(16) 0.00907(18) 0. 0. 0.
Co6 Co0+ 0.00622(17) 0.00695(18) 0.0102(2) 0. 0. 0.
Co7 Co0+ 0.00664(14) 0.01749(16) 0.00796(14) 0. 0. 0.
Co8 Co0+ 0.00530(16) 0.00716(16) 0.00631(16) 0. 0. 0.
Co9 Co0+ 0.00484(16) 0.00691(16) 0.00928(17) 0. 0. 0.
Co10 Co0+ 0.00574(15) 0.00674(16) 0.00570(16) 0. 0. 0.
Co11 Co0+ 0.0154(4) 0.0082(4) 0.0117(4) 0. 0. 0.
Al1 Al0+ 0.0074(3) 0.0120(3) 0.0074(2) 0. 0. 0.
Al2 Al0+ 0.0080(2) 0.0112(3) 0.0077(2) 0. 0. 0.
Al3 Al0+ 0.0082(2) 0.0120(3) 0.0141(3) 0. 0. 0.
Al4 Al0+ 0.0109(4) 0.0113(4) 0.0069(3) 0. 0. 0.
Al5 Al0+ 0.0136(4) 0.0114(4) 0.0069(3) 0. 0. 0.
Al6 Al0+ 0.0109(3) 0.0189(3) 0.0063(3) 0. 0. 0.
Al7 Al0+ 0.0082(2) 0.0123(3) 0.0137(3) 0. 0. 0.
Al8 Al0+ 0.0101(3) 0.0196(3) 0.0052(2) 0. 0. 0.
Al9 Al0+ 0.0092(2) 0.0117(3) 0.0073(2) 0. 0. 0.
Al10 Al0+ 0.0366(6) 0.0106(4) 0.0105(4) 0. 0. 0.
Al11 Al0+ 0.0093(2) 0.0216(3) 0.0061(2) 0. 0. 0.
Al12 Al0+ 0.0103(3) 0.0188(3) 0.0076(3) 0. 0. 0.
Al13 Al0+ 0.0099(2) 0.0117(3) 0.0080(2) 0. 0. 0.
Al14 Al0+ 0.0331(5) 0.0108(4) 0.0102(4) 0. 0. 0.
Al15 Al0+ 0.0069(3) 0.0064(3) 0.0124(3) 0. 0. 0.
Al16 Al0+ 0.0266(5) 0.0149(4) 0.0241(5) 0. 0. 0.
Al17 Al0+ 0.0255(5) 0.0193(5) 0.0265(5) 0. 0. 0.
Al18 Al0+ 0.0115(4) 0.0125(4) 0.0341(5) 0. 0. 0.
Al19 Al0+ 0.0244(5) 0.0076(4) 0.0122(4) 0. 0. 0.
Al20 Al0+ 0.0187(4) 0.0073(4) 0.0114(4) 0. 0. 0.
Al21 Al0+ 0.0114(4) 0.0127(4) 0.0338(5) 0. 0. 0.
#End of TTdata_168457-ICSD