
#(C) 2019 by FIZ Karlsruhe - Leibniz Institute for Information Infrastructure.  All rights reserved.
data_155385-ICSD
_database_code_ICSD 155385
_audit_creation_date 2007-08-01
_chemical_name_systematic 'Aluminium cobalt nickel (18/5/3) - X-phase'
_chemical_formula_structural 'Al18 (Co5 Ni3)'
_chemical_formula_sum 'Al18 Co5 Ni3'
_exptl_crystal_density_diffrn 4.36
_publ_section_title

;
X-ray diffraction study and theoretical calculations on the X-phase, Al9 (Co,
Ni)4
;
loop_
_citation_id
_citation_journal_full
_citation_year
_citation_journal_volume
_citation_page_first
_citation_page_last
_citation_journal_id_ASTM
primary 'Philosophical Magazine' 2006 86 451 456 PMHABF
loop_
_publ_author_name
'Katrych, S.'
'Mihalkovic, M.'
'Gramlich, V.'
'Widom, M.'
'Steurer, W.'
_cell_length_a 12.146(2)
_cell_length_b 4.0702(5)
_cell_length_c 7.652(1)
_cell_angle_alpha 90.
_cell_angle_beta 105.88(1)
_cell_angle_gamma 90.
_cell_volume 363.85
_cell_formula_units_Z 1
_symmetry_space_group_name_H-M 'C 1 2/m 1'
_symmetry_Int_Tables_number 12
_refine_ls_R_factor_all 0.05
loop_
_symmetry_equiv_pos_site_id
_symmetry_equiv_pos_as_xyz
1 '-x, y, -z'
2 '-x, -y, -z'
3 'x, -y, z'
4 'x, y, z'
5 '-x+1/2, y+1/2, -z'
6 '-x+1/2, -y+1/2, -z'
7 'x+1/2, -y+1/2, z'
8 'x+1/2, y+1/2, z'
loop_
_atom_type_symbol
_atom_type_oxidation_number
Co0+ 0
Ni0+ 0
Co0+ 0
Al0+ 0
loop_
_atom_site_label
_atom_site_type_symbol
_atom_site_symmetry_multiplicity
_atom_site_Wyckoff_symbol
_atom_site_fract_x
_atom_site_fract_y
_atom_site_fract_z
_atom_site_B_iso_or_equiv
_atom_site_occupancy
_atom_site_attached_hydrogens
Co1 Co0+ 4 i 0.2934(1) 0 0.1272(1) 0.010(1) 0.25 0
Ni1 Ni0+ 4 i 0.2934(1) 0 0.1272(1) 0.010(1) 0.75 0
Co2 Co0+ 4 i 0.3863(1) 0.5 -0.2909(1) 0.011(1) 1. 0
Al1 Al0+ 4 i 0.1814(1) 0.5 -0.4551(1) 0.011(1) 1. 0
Al2 Al0+ 4 i 0.5046 0 -0.2623(1) 0.012(1) 1. 0
Al3 Al0+ 4 i 0.2981(1) 0 -0.1900(1) 0.012(1) 1. 0
Al4 Al0+ 4 i 0.4032(1) 0.5 0.0542(1) 0.012(1) 1. 0
Al5 Al0+ 2 c 0.5 0.5 0.5 0.020(1) 1. 0
loop_
_atom_site_aniso_label
_atom_site_aniso_type_symbol
_atom_site_aniso_U_11
_atom_site_aniso_U_22
_atom_site_aniso_U_33
_atom_site_aniso_U_12
_atom_site_aniso_U_13
_atom_site_aniso_U_23
Co1 Co0+ 0.010(1) 0.012(1) 0.008(1) 0. 0.002(1) 0.
Ni1 Ni0+ 0.010(1) 0.012(1) 0.008(1) 0. 0.002(1) 0.
Co2 Co0+ 0.012(1) 0.010(1) 0.010(1) 0. 0.004(1) 0.
Al1 Al0+ 0.010(1) 0.013(1) 0.010(1) 0. 0.002(1) 0.
Al2 Al0+ 0.010(1) 0.011(1) 0.015(1) 0. 0.002(1) 0.
Al3 Al0+ 0.015(1) 0.011(1) 0.013(1) 0. 0.006(1) 0.
Al4 Al0+ 0.010(1) 0.012(1) 0.013(1) 0. 0.002(1) 0.
Al5 Al0+ 0.025(1) 0.020(1) 0.020(1) 0. 0.012(1) 0.
#End of TTdata_155385-ICSD